500
1000
300
300
300
299
299
298
298
298
297
297
297
297
296
295
295
295
294
294
294
293
293
293
293
292
291
291
291
291
291
291
291
290
290
289
289
288
288
287
287
287
286
286
286
285
285
285
284
283
283
283
283
282
282
282
280
280
279
279
279
279
279
278
277
277
276
276
275
275
275
275
274
273
273
273
273
273
273
271
271
271
271
271
271
270
270
270
270
270
269
269
269
268
267
267
266
265
265
264
264
264
263
262
262
262
261
261
260
260
259
259
259
258
258
257
256
255
254
254
254
253
253
252
252
252
251
251
251
250
250
250
250
249
249
249
249
248
248
248
248
247
247
247
247
246
246
246
245
244
244
244
243
243
243
243
242
241
241
241
241
240
238
238
237
237
236
235
235
233
233
232
232
232
232
232
232
232
231
230
229
229
229
228
228
228
227
227
227
227
226
226
226
226
225
225
224
224
222
222
221
221
220
220
219
217
217
217
217
216
216
216
215
215
215
214
214
214
214
214
214
213
213
212
212
212
212
212
212
211
211
211
210
210
210
210
210
210
209
209
208
208
207
206
206
205
205
205
204
204
204
204
203
203
202
202
202
202
202
202
202
202
201
201
201
201
201
199
198
198
198
198
196
196
196
195
193
193
193
193
193
193
192
192
192
192
192
191
190
190
189
189
189
188
188
188
187
187
186
186
186
186
184
184
183
183
182
181
181
180
179
179
178
178
177
177
176
175
175
175
175
174
174
174
172
172
171
171
171
171
170
170
170
168
167
167
167
166
166
166
166
166
166
165
165
165
165
165
164
164
164
162
161
161
159
159
159
158
158
158
158
158
158
157
156
156
155
155
155
154
154
154
153
152
151
151
151
151
150
149
148
147
147
146
146
146
146
146
145
145
144
143
142
141
141
140
140
140
140
139
139
138
137
137
137
137
137
137
137
136
136
135
135
135
134
134
134
134
133
133
132
131
131
131
130
130
130
130
129
129
126
126
126
126
126
125
125
125
125
124
124
124
123
123
122
121
121
121
121
120
120
119
119
119
118
118
118
117
117
117
116
116
115
114
114
113
112
112
112
112
111
111
111
110
109
109
109
109
109
108
108
108
107
106
106
106
105
105
105
105
105
104
104
104
103
103
102
102
102
102
102
102
